(benchmark gametime
:status unknown
:logic QF_AUFBV
:extrafuns ((gtINDEX55  BitVec[32]))
:extrafuns ((gtFIELD__bitsForTID0__gtAGG____anonstruct_D_Work_4  Array[32:32]))
:extrafuns ((gtINDEX56  BitVec[32]))
:extrafuns ((gtAGG__rtDWork  BitVec[32]))
:extrafuns ((gtINDEX53  BitVec[32]))
:extrafuns ((gtINDEX54  BitVec[32]))
:extrafuns ((gtINDEX51  BitVec[32]))
:extrafuns ((gtINDEX52  BitVec[32]))
:extrafuns ((gtINDEX49  BitVec[32]))
:extrafuns ((gtINDEX50  BitVec[32]))
:extrafuns ((gtINDEX48  BitVec[32]))
:extrafuns ((gtINDEX47  BitVec[32]))
:extrafuns ((gtINDEX46  BitVec[32]))
:extrafuns ((gtINDEX45  BitVec[32]))
:extrafuns ((gtINDEX43  BitVec[32]))
:extrafuns ((gtINDEX44  BitVec[32]))
:extrafuns ((gtINDEX41  BitVec[32]))
:extrafuns ((gtINDEX42  BitVec[32]))
:extrafuns ((gtINDEX39  BitVec[32]))
:extrafuns ((gtINDEX40  BitVec[32]))
:extrafuns ((gtINDEX37  BitVec[32]))
:extrafuns ((gtINDEX38  BitVec[32]))
:extrafuns ((gtINDEX35  BitVec[32]))
:extrafuns ((gtINDEX36  BitVec[32]))
:extrafuns ((gtINDEX33  BitVec[32]))
:extrafuns ((gtINDEX34  BitVec[32]))
:extrafuns ((gtINDEX31  BitVec[32]))
:extrafuns ((gtINDEX32  BitVec[32]))
:extrafuns ((gtINDEX30  BitVec[32]))
:extrafuns ((gtINDEX28  BitVec[32]))
:extrafuns ((gtINDEX29  BitVec[32]))
:extrafuns ((gtINDEX27  BitVec[32]))
:extrafuns ((gtINDEX25  BitVec[32]))
:extrafuns ((gtINDEX26  BitVec[32]))
:extrafuns ((gtINDEX23  BitVec[32]))
:extrafuns ((gtINDEX24  BitVec[32]))
:extrafuns ((gtINDEX22  BitVec[32]))
:extrafuns ((gtINDEX21  BitVec[32]))
:extrafuns ((gtINDEX20  BitVec[32]))
:extrafuns ((gtINDEX19  BitVec[32]))
:extrafuns ((gtINDEX18  BitVec[32]))
:extrafuns ((gtINDEX16  BitVec[32]))
:extrafuns ((gtINDEX17  BitVec[32]))
:extrafuns ((gtINDEX14  BitVec[32]))
:extrafuns ((gtINDEX15  BitVec[32]))
:extrafuns ((gtINDEX12  BitVec[32]))
:extrafuns ((gtINDEX13  BitVec[32]))
:extrafuns ((gtINDEX10  BitVec[32]))
:extrafuns ((gtINDEX11  BitVec[32]))
:extrafuns ((gtINDEX8  BitVec[32]))
:extrafuns ((gtINDEX9  BitVec[32]))
:extrafuns ((gtINDEX6  BitVec[32]))
:extrafuns ((gtINDEX7  BitVec[32]))
:extrafuns ((gtINDEX4  BitVec[32]))
:extrafuns ((gtINDEX5  BitVec[32]))
:extrafuns ((gtINDEX2  BitVec[32]))
:extrafuns ((gtINDEX3  BitVec[32]))
:extrafuns ((gtINDEX0  BitVec[32]))
:extrafuns ((gtINDEX1  BitVec[32]))
:extrafuns ((gtFIELD__is_Eng__gtAGG____anonstruct_bitsForTID0_5_1_  Array[32:1]))
:extrafuns ((gtFIELD__is_Eng__gtAGG____anonstruct_bitsForTID0_5_2_  Array[32:1]))
:extrafuns ((sf_previousEvent_1_  BitVec[32]))
:extrafuns ((sfEvent__2_  BitVec[32]))
:extrafuns ((gtFIELD__is_Eng__gtAGG____anonstruct_bitsForTID0_5  Array[32:1]))
:extrafuns ((gtFIELD__sent__gtAGG____anonstruct_D_Work_4_1_  Array[32:32]))
:extrafuns ((gtFIELD__sent__gtAGG____anonstruct_D_Work_4_2_  Array[32:32]))
:extrafuns ((gtFIELD__is_active_Eng__gtAGG____anonstruct_bitsForTID0_5  Array[32:1]))
:extrafuns ((gtFIELD__is_active_PURI__gtAGG____anonstruct_bitsForTID0_5  Array[32:1]))
:extrafuns ((sfEvent__1_  BitVec[32]))
:extrafuns ((gtFIELD__is_PVRP__gtAGG____anonstruct_bitsForTID0_5  Array[32:2]))
:extrafuns ((gtFIELD__is_active_PVRP__gtAGG____anonstruct_bitsForTID0_5  Array[32:1]))
:extrafuns ((gtFIELD__is_active_PPVARP__gtAGG____anonstruct_bitsForTID0_5  Array[32:1]))
:extrafuns ((gtFIELD__is_active_PLRI__gtAGG____anonstruct_bitsForTID0_5  Array[32:1]))
:extrafuns ((gtFIELD__temporalCounter_i1__gtAGG____anonstruct_D_Work_4  Array[32:32]))
:extrafuns ((gtFIELD__temporalCounter_i1__gtAGG____anonstruct_D_Work_4_1_  Array[32:32]))
:extrafuns ((gtFIELD__is_PAVI__gtAGG____anonstruct_bitsForTID0_5  Array[32:3]))
:extrafuns ((gtFIELD__is_PAVI__gtAGG____anonstruct_bitsForTID0_5_1_  Array[32:3]))
:extrafuns ((gtFIELD__n_t__gtAGG____anonstruct_D_Work_4  Array[32:32]))
:extrafuns ((gtFIELD__n_t__gtAGG____anonstruct_D_Work_4_1_  Array[32:32]))
:extrafuns ((gtFIELD__is_active_PAVI__gtAGG____anonstruct_bitsForTID0_5  Array[32:1]))
:extrafuns ((sfEvent_  BitVec[32]))
:extrafuns ((gtFIELD__sent__gtAGG____anonstruct_D_Work_4  Array[32:32]))
:extrapreds ((constraint102 ))
:extrapreds ((constraint101 ))
:extrapreds ((constraint100 ))
:extrapreds ((constraint99 ))
:extrapreds ((constraint98 ))
:extrapreds ((constraint97 ))
:extrapreds ((constraint96 ))
:extrapreds ((constraint95 ))
:extrapreds ((constraint94 ))
:extrapreds ((constraint93 ))
:extrapreds ((constraint92 ))
:extrapreds ((constraint91 ))
:extrapreds ((constraint90 ))
:extrapreds ((constraint89 ))
:extrapreds ((constraint88 ))
:extrapreds ((constraint87 ))
:extrapreds ((constraint86 ))
:extrapreds ((constraint85 ))
:extrapreds ((constraint84 ))
:extrapreds ((constraint83 ))
:extrapreds ((constraint82 ))
:extrapreds ((constraint81 ))
:extrapreds ((constraint80 ))
:extrapreds ((constraint79 ))
:extrapreds ((constraint78 ))
:extrapreds ((constraint77 ))
:extrapreds ((constraint76 ))
:extrapreds ((constraint75 ))
:extrapreds ((constraint74 ))
:extrapreds ((constraint73 ))
:extrapreds ((constraint72 ))
:extrapreds ((constraint71 ))
:extrapreds ((constraint70 ))
:extrapreds ((constraint69 ))
:extrapreds ((constraint68 ))
:extrapreds ((constraint67 ))
:extrapreds ((constraint66 ))
:extrapreds ((constraint65 ))
:extrapreds ((constraint64 ))
:extrapreds ((constraint63 ))
:extrapreds ((constraint62 ))
:extrapreds ((constraint61 ))
:extrapreds ((constraint60 ))
:extrapreds ((constraint59 ))
:extrapreds ((constraint58 ))
:extrapreds ((constraint57 ))
:extrapreds ((constraint56 ))
:extrapreds ((constraint55 ))
:extrapreds ((constraint54 ))
:extrapreds ((constraint53 ))
:extrapreds ((constraint52 ))
:extrapreds ((constraint51 ))
:extrapreds ((constraint50 ))
:extrapreds ((constraint49 ))
:extrapreds ((constraint48 ))
:extrapreds ((constraint47 ))
:extrapreds ((constraint46 ))
:extrapreds ((constraint45 ))
:extrapreds ((constraint44 ))
:extrapreds ((constraint43 ))
:extrapreds ((constraint42 ))
:extrapreds ((constraint41 ))
:extrapreds ((constraint40 ))
:extrapreds ((constraint39 ))
:extrapreds ((constraint38 ))
:extrapreds ((constraint37 ))
:extrapreds ((constraint36 ))
:extrapreds ((constraint35 ))
:extrapreds ((constraint34 ))
:extrapreds ((constraint33 ))
:extrapreds ((constraint32 ))
:extrapreds ((constraint31 ))
:extrapreds ((constraint30 ))
:extrapreds ((constraint29 ))
:extrapreds ((constraint28 ))
:extrapreds ((constraint27 ))
:extrapreds ((constraint26 ))
:extrapreds ((constraint25 ))
:extrapreds ((constraint24 ))
:extrapreds ((constraint23 ))
:extrapreds ((constraint22 ))
:extrapreds ((constraint21 ))
:extrapreds ((constraint20 ))
:extrapreds ((constraint19 ))
:extrapreds ((constraint18 ))
:extrapreds ((constraint17 ))
:extrapreds ((constraint16 ))
:extrapreds ((constraint15 ))
:extrapreds ((constraint14 ))
:extrapreds ((constraint13 ))
:extrapreds ((constraint12 ))
:extrapreds ((constraint11 ))
:extrapreds ((constraint10 ))
:extrapreds ((constraint9 ))
:extrapreds ((constraint8 ))
:extrapreds ((constraint7 ))
:extrapreds ((constraint6 ))
:extrapreds ((constraint5 ))
:extrapreds ((constraint4 ))
:extrapreds ((constraint3 ))
:extrapreds ((constraint2 ))
:extrapreds ((constraint1 ))
:extrapreds ((constraint0 ))
:formula
(flet ($x532 (and constraint0 constraint1 constraint2 constraint3 constraint4 constraint5 constraint6 constraint7 constraint8 constraint9 constraint10 constraint11 constraint12 constraint13 constraint14 constraint15 constraint16 constraint17 constraint18 constraint19 constraint20 constraint21 constraint22 constraint23 constraint24 constraint25 constraint26 constraint27 constraint28 constraint29 constraint30 constraint31 constraint32 constraint33 constraint34 constraint35 constraint36 constraint37 constraint38 constraint39 constraint40 constraint41 constraint42 constraint43 constraint44 constraint45 constraint46 constraint47 constraint48 constraint49 constraint50 constraint51 constraint52 constraint53 constraint54 constraint55 constraint56 constraint57 constraint58 constraint59 constraint60 constraint61 constraint62 constraint63 constraint64 constraint65 constraint66 constraint67 constraint68 constraint69 constraint70 constraint71 constraint72 constraint73 constraint74 constraint75 constraint76 constraint77 constraint78 constraint79 constraint80 constraint81 constraint82 constraint83 constraint84 constraint85 constraint86 constraint87 constraint88 constraint89 constraint90 constraint91 constraint92 constraint93 constraint94 constraint95 constraint96 constraint97 constraint98 constraint99 constraint100 constraint101 constraint102))
(flet ($x324 (= gtINDEX56 (select gtFIELD__bitsForTID0__gtAGG____anonstruct_D_Work_4 gtINDEX55)))
(flet ($x320 (= gtINDEX54 (select gtFIELD__bitsForTID0__gtAGG____anonstruct_D_Work_4 gtINDEX53)))
(flet ($x316 (= gtINDEX52 (select gtFIELD__bitsForTID0__gtAGG____anonstruct_D_Work_4 gtINDEX51)))
(flet ($x312 (= gtINDEX50 (select gtFIELD__bitsForTID0__gtAGG____anonstruct_D_Work_4 gtINDEX49)))
(flet ($x304 (= gtINDEX44 (select gtFIELD__bitsForTID0__gtAGG____anonstruct_D_Work_4 gtINDEX43)))
(flet ($x300 (= gtINDEX42 (select gtFIELD__bitsForTID0__gtAGG____anonstruct_D_Work_4 gtINDEX41)))
(flet ($x296 (= gtINDEX40 (select gtFIELD__bitsForTID0__gtAGG____anonstruct_D_Work_4 gtINDEX39)))
(flet ($x292 (= gtINDEX38 (select gtFIELD__bitsForTID0__gtAGG____anonstruct_D_Work_4 gtINDEX37)))
(flet ($x288 (= gtINDEX36 (select gtFIELD__bitsForTID0__gtAGG____anonstruct_D_Work_4 gtINDEX35)))
(flet ($x284 (= gtINDEX34 (select gtFIELD__bitsForTID0__gtAGG____anonstruct_D_Work_4 gtINDEX33)))
(flet ($x280 (= gtINDEX32 (select gtFIELD__bitsForTID0__gtAGG____anonstruct_D_Work_4 gtINDEX31)))
(flet ($x275 (= gtINDEX29 (select gtFIELD__bitsForTID0__gtAGG____anonstruct_D_Work_4 gtINDEX28)))
(flet ($x270 (= gtINDEX26 (select gtFIELD__bitsForTID0__gtAGG____anonstruct_D_Work_4 gtINDEX25)))
(flet ($x266 (= gtINDEX24 (select gtFIELD__bitsForTID0__gtAGG____anonstruct_D_Work_4 gtINDEX23)))
(flet ($x257 (= gtINDEX17 (select gtFIELD__bitsForTID0__gtAGG____anonstruct_D_Work_4 gtINDEX16)))
(flet ($x253 (= gtINDEX15 (select gtFIELD__bitsForTID0__gtAGG____anonstruct_D_Work_4 gtINDEX14)))
(flet ($x249 (= gtINDEX13 (select gtFIELD__bitsForTID0__gtAGG____anonstruct_D_Work_4 gtINDEX12)))
(flet ($x245 (= gtINDEX11 (select gtFIELD__bitsForTID0__gtAGG____anonstruct_D_Work_4 gtINDEX10)))
(flet ($x241 (= gtINDEX9 (select gtFIELD__bitsForTID0__gtAGG____anonstruct_D_Work_4 gtINDEX8)))
(flet ($x237 (= gtINDEX7 (select gtFIELD__bitsForTID0__gtAGG____anonstruct_D_Work_4 gtINDEX6)))
(flet ($x233 (= gtINDEX5 (select gtFIELD__bitsForTID0__gtAGG____anonstruct_D_Work_4 gtINDEX4)))
(flet ($x229 (= gtINDEX3 (select gtFIELD__bitsForTID0__gtAGG____anonstruct_D_Work_4 gtINDEX2)))
(flet ($x225 (= gtINDEX1 (select gtFIELD__bitsForTID0__gtAGG____anonstruct_D_Work_4 gtINDEX0)))
(let (?x209 (extract[0:0] bv1[32]))
(let (?x219 (store gtFIELD__is_Eng__gtAGG____anonstruct_bitsForTID0_5_1_ gtINDEX56 ?x209))
(flet ($x416 (iff constraint45 (= gtFIELD__is_Eng__gtAGG____anonstruct_bitsForTID0_5_2_ ?x219)))
(let (?x215 (select gtFIELD__is_Eng__gtAGG____anonstruct_bitsForTID0_5_1_ gtINDEX54))
(let (?x210 (store gtFIELD__is_Eng__gtAGG____anonstruct_bitsForTID0_5 gtINDEX52 ?x209))
(flet ($x410 (iff constraint42 (= gtFIELD__is_Eng__gtAGG____anonstruct_bitsForTID0_5_1_ ?x210)))
(let (?x206 (zero_extend[31] (select gtFIELD__is_Eng__gtAGG____anonstruct_bitsForTID0_5 gtINDEX50)))
(let (?x202 (store gtFIELD__sent__gtAGG____anonstruct_D_Work_4_1_ gtINDEX48 bv0[32]))
(flet ($x406 (iff constraint40 (= gtFIELD__sent__gtAGG____anonstruct_D_Work_4_2_ ?x202)))
(let (?x116 (bvmul bv4294967295[32] bv1[32]))
(flet ($x200 (= (select gtFIELD__sent__gtAGG____anonstruct_D_Work_4_1_ gtINDEX47) ?x116))
(flet ($x196 (= (select gtFIELD__sent__gtAGG____anonstruct_D_Work_4_1_ gtINDEX46) bv9[32]))
(flet ($x192 (= (select gtFIELD__sent__gtAGG____anonstruct_D_Work_4_1_ gtINDEX45) bv4[32]))
(let (?x188 (zero_extend[31] (select gtFIELD__is_Eng__gtAGG____anonstruct_bitsForTID0_5 gtINDEX44)))
(let (?x182 (select gtFIELD__is_active_Eng__gtAGG____anonstruct_bitsForTID0_5 gtINDEX42))
(let (?x176 (select gtFIELD__is_active_PURI__gtAGG____anonstruct_bitsForTID0_5 gtINDEX40))
(let (?x168 (select gtFIELD__is_PVRP__gtAGG____anonstruct_bitsForTID0_5 gtINDEX38))
(let (?x163 (select gtFIELD__is_active_PVRP__gtAGG____anonstruct_bitsForTID0_5 gtINDEX36))
(let (?x157 (select gtFIELD__is_active_PPVARP__gtAGG____anonstruct_bitsForTID0_5 gtINDEX34))
(let (?x151 (select gtFIELD__is_active_PLRI__gtAGG____anonstruct_bitsForTID0_5 gtINDEX32))
(let (?x148 (store gtFIELD__temporalCounter_i1__gtAGG____anonstruct_D_Work_4 gtINDEX30 bv0[32]))
(flet ($x380 (iff constraint27 (= gtFIELD__temporalCounter_i1__gtAGG____anonstruct_D_Work_4_1_ ?x148)))
(let (?x145 (store gtFIELD__is_PAVI__gtAGG____anonstruct_bitsForTID0_5 gtINDEX29 (extract[2:0] bv2[32])))
(flet ($x378 (iff constraint26 (= gtFIELD__is_PAVI__gtAGG____anonstruct_bitsForTID0_5_1_ ?x145)))
(flet ($x142 (= gtFIELD__n_t__gtAGG____anonstruct_D_Work_4_1_ (store gtFIELD__n_t__gtAGG____anonstruct_D_Work_4 gtINDEX27 bv0[32])))
(let (?x137 (select gtFIELD__is_PAVI__gtAGG____anonstruct_bitsForTID0_5 gtINDEX26))
(let (?x132 (select gtFIELD__is_active_PAVI__gtAGG____anonstruct_bitsForTID0_5 gtINDEX24))
(flet ($x124 (= gtFIELD__sent__gtAGG____anonstruct_D_Work_4_1_ (store gtFIELD__sent__gtAGG____anonstruct_D_Work_4 gtINDEX22 ?x116)))
(flet ($x121 (= (select gtFIELD__sent__gtAGG____anonstruct_D_Work_4 gtINDEX21) bv1[32]))
(flet ($x117 (= (select gtFIELD__sent__gtAGG____anonstruct_D_Work_4 gtINDEX20) ?x116))
(flet ($x111 (= (select gtFIELD__sent__gtAGG____anonstruct_D_Work_4 gtINDEX19) bv9[32]))
(flet ($x106 (= (select gtFIELD__sent__gtAGG____anonstruct_D_Work_4 gtINDEX18) bv4[32]))
(let (?x102 (zero_extend[31] (select gtFIELD__is_Eng__gtAGG____anonstruct_bitsForTID0_5 gtINDEX17)))
(let (?x96 (select gtFIELD__is_active_Eng__gtAGG____anonstruct_bitsForTID0_5 gtINDEX15))
(let (?x90 (select gtFIELD__is_active_PURI__gtAGG____anonstruct_bitsForTID0_5 gtINDEX13))
(let (?x81 (select gtFIELD__is_PVRP__gtAGG____anonstruct_bitsForTID0_5 gtINDEX11))
(let (?x76 (select gtFIELD__is_active_PVRP__gtAGG____anonstruct_bitsForTID0_5 gtINDEX9))
(let (?x70 (select gtFIELD__is_active_PPVARP__gtAGG____anonstruct_bitsForTID0_5 gtINDEX7))
(let (?x64 (select gtFIELD__is_active_PLRI__gtAGG____anonstruct_bitsForTID0_5 gtINDEX5))
(let (?x54 (zero_extend[29] (select gtFIELD__is_PAVI__gtAGG____anonstruct_bitsForTID0_5 gtINDEX3)))
(let (?x47 (select gtFIELD__is_active_PAVI__gtAGG____anonstruct_bitsForTID0_5 gtINDEX1))
(flet ($x531 (and (iff constraint0 (not (= sfEvent_ bv8[32]))) (iff constraint1 (not (= (zero_extend[31] ?x47) bv0[32]))) (iff constraint2 (= ?x54 bv1[32])) (iff constraint3 (not (= sfEvent_ bv2[32]))) (iff constraint4 (not (= sfEvent_ bv3[32]))) (iff constraint5 (not (not (= (zero_extend[31] ?x64) bv0[32])))) (iff constraint6 (not (not (= (zero_extend[31] ?x70) bv0[32])))) (iff constraint7 (not (= (zero_extend[31] ?x76) bv0[32]))) (iff constraint8 (= (zero_extend[30] ?x81) bv1[32])) (iff constraint9 (not (= sfEvent_ bv0[32]))) (iff constraint10 (not (= sfEvent_ bv4[32]))) (iff constraint11 (not (not (= (zero_extend[31] ?x90) bv0[32])))) (iff constraint12 (not (= (zero_extend[31] ?x96) bv0[32]))) (iff constraint13 (= ?x102 bv1[32])) (iff constraint14 (not $x106)) (iff constraint15 (not $x111)) (iff constraint16 (not $x117)) (iff constraint17 $x121) (iff constraint18 $x124) (iff constraint19 (= sf_previousEvent_1_ sfEvent_)) (iff constraint20 (= sfEvent__1_ bv2[32])) (iff constraint21 (not (= sfEvent__1_ bv8[32]))) (iff constraint22 (not (= (zero_extend[31] ?x132) bv0[32]))) (iff constraint23 (= (zero_extend[29] ?x137) bv1[32])) (iff constraint24 (= sfEvent__1_ bv2[32])) (iff constraint25 $x142) $x378 $x380 (iff constraint28 (not (not (= (zero_extend[31] ?x151) bv0[32])))) (iff constraint29 (not (not (= (zero_extend[31] ?x157) bv0[32])))) (iff constraint30 (not (= (zero_extend[31] ?x163) bv0[32]))) (iff constraint31 (= (zero_extend[30] ?x168) bv1[32])) (iff constraint32 (not (= sfEvent__1_ bv0[32]))) (iff constraint33 (not (= sfEvent__1_ bv4[32]))) (iff constraint34 (not (not (= (zero_extend[31] ?x176) bv0[32])))) (iff constraint35 (not (= (zero_extend[31] ?x182) bv0[32]))) (iff constraint36 (= ?x188 bv1[32])) (iff constraint37 (not $x192)) (iff constraint38 (not $x196)) (iff constraint39 $x200) $x406 (iff constraint41 (= ?x206 bv1[32])) $x410 (iff constraint43 (= sfEvent__2_ sf_previousEvent_1_)) (iff constraint44 (= (zero_extend[31] ?x215) bv1[32])) $x416 (iff constraint46 (= gtINDEX0 gtAGG__rtDWork)) (iff constraint47 $x225) (iff constraint48 (= gtINDEX2 gtAGG__rtDWork)) (iff constraint49 $x229) (iff constraint50 (= gtINDEX4 gtAGG__rtDWork)) (iff constraint51 $x233) (iff constraint52 (= gtINDEX6 gtAGG__rtDWork)) (iff constraint53 $x237) (iff constraint54 (= gtINDEX8 gtAGG__rtDWork)) (iff constraint55 $x241) (iff constraint56 (= gtINDEX10 gtAGG__rtDWork)) (iff constraint57 $x245) (iff constraint58 (= gtINDEX12 gtAGG__rtDWork)) (iff constraint59 $x249) (iff constraint60 (= gtINDEX14 gtAGG__rtDWork)) (iff constraint61 $x253) (iff constraint62 (= gtINDEX16 gtAGG__rtDWork)) (iff constraint63 $x257) (iff constraint64 (= gtINDEX18 gtAGG__rtDWork)) (iff constraint65 (= gtINDEX19 gtAGG__rtDWork)) (iff constraint66 (= gtINDEX20 gtAGG__rtDWork)) (iff constraint67 (= gtINDEX21 gtAGG__rtDWork)) (iff constraint68 (= gtINDEX22 gtAGG__rtDWork)) (iff constraint69 (= gtINDEX23 gtAGG__rtDWork)) (iff constraint70 $x266) (iff constraint71 (= gtINDEX25 gtAGG__rtDWork)) (iff constraint72 $x270) (iff constraint73 (= gtINDEX27 gtAGG__rtDWork)) (iff constraint74 (= gtINDEX28 gtAGG__rtDWork)) (iff constraint75 $x275) (iff constraint76 (= gtINDEX30 gtAGG__rtDWork)) (iff constraint77 (= gtINDEX31 gtAGG__rtDWork)) (iff constraint78 $x280) (iff constraint79 (= gtINDEX33 gtAGG__rtDWork)) (iff constraint80 $x284) (iff constraint81 (= gtINDEX35 gtAGG__rtDWork)) (iff constraint82 $x288) (iff constraint83 (= gtINDEX37 gtAGG__rtDWork)) (iff constraint84 $x292) (iff constraint85 (= gtINDEX39 gtAGG__rtDWork)) (iff constraint86 $x296) (iff constraint87 (= gtINDEX41 gtAGG__rtDWork)) (iff constraint88 $x300) (iff constraint89 (= gtINDEX43 gtAGG__rtDWork)) (iff constraint90 $x304) (iff constraint91 (= gtINDEX45 gtAGG__rtDWork)) (iff constraint92 (= gtINDEX46 gtAGG__rtDWork)) (iff constraint93 (= gtINDEX47 gtAGG__rtDWork)) (iff constraint94 (= gtINDEX48 gtAGG__rtDWork)) (iff constraint95 (= gtINDEX49 gtAGG__rtDWork)) (iff constraint96 $x312) (iff constraint97 (= gtINDEX51 gtAGG__rtDWork)) (iff constraint98 $x316) (iff constraint99 (= gtINDEX53 gtAGG__rtDWork)) (iff constraint100 $x320) (iff constraint101 (= gtINDEX55 gtAGG__rtDWork)) (iff constraint102 $x324)))
(and $x531 $x532)))))))))))))))))))))))))))))))))))))))))))))))))))))))))))))))))))
)
